out/bwp_9_9_1_lp.out
3
2 0    3 0
8 1    8 2
0 0    0 0
1 0    1 0
0 1    0 1
7 2    7 2
4 0    5 1
6 0    7 1
2 1    3 2
